
(set-logic HORN)
(declare-datatypes ((Bool_89 0)) (((false_89) (true_89))))
(declare-fun diseqBool_38 (Bool_89 Bool_89) Bool)
(declare-fun isfalse_38 (Bool_89) Bool)
(declare-fun istrue_38 (Bool_89) Bool)
(assert (isfalse_38 false_89))
(assert (istrue_38 true_89))
(assert (diseqBool_38 false_89 true_89))
(assert (diseqBool_38 true_89 false_89))
(declare-fun and_89 (Bool_89 Bool_89 Bool_89) Bool)
(declare-fun or_90 (Bool_89 Bool_89 Bool_89) Bool)
(declare-fun hence_89 (Bool_89 Bool_89 Bool_89) Bool)
(declare-fun not_89 (Bool_89 Bool_89) Bool)
(assert (and_89 false_89 false_89 false_89))
(assert (and_89 false_89 true_89 false_89))
(assert (and_89 false_89 false_89 true_89))
(assert (and_89 true_89 true_89 true_89))
(assert (or_90 false_89 false_89 false_89))
(assert (or_90 true_89 true_89 false_89))
(assert (or_90 true_89 false_89 true_89))
(assert (or_90 true_89 true_89 true_89))
(assert (hence_89 true_89 false_89 false_89))
(assert (hence_89 false_89 true_89 false_89))
(assert (hence_89 true_89 false_89 true_89))
(assert (hence_89 true_89 true_89 true_89))
(assert (not_89 true_89 false_89))
(assert (not_89 false_89 true_89))
(declare-datatypes ((list_70 0)) (((nil_72) (cons_70 (head_140 Bool_89) (tail_140 list_70)))))
(declare-fun diseqlist_70 (list_70 list_70) Bool)
(declare-fun head_143 (Bool_89 list_70) Bool)
(declare-fun tail_143 (list_70 list_70) Bool)
(declare-fun isnil_72 (list_70) Bool)
(declare-fun iscons_70 (list_70) Bool)
(assert (forall ((x_6781 Bool_89) (x_6782 list_70))
	(head_143 x_6781 (cons_70 x_6781 x_6782))))
(assert (forall ((x_6781 Bool_89) (x_6782 list_70))
	(tail_143 x_6782 (cons_70 x_6781 x_6782))))
(assert (isnil_72 nil_72))
(assert (forall ((x_6784 Bool_89) (x_6785 list_70))
	(iscons_70 (cons_70 x_6784 x_6785))))
(assert (forall ((x_6786 Bool_89) (x_6787 list_70))
	(diseqlist_70 nil_72 (cons_70 x_6786 x_6787))))
(assert (forall ((x_6788 Bool_89) (x_6789 list_70))
	(diseqlist_70 (cons_70 x_6788 x_6789) nil_72)))
(assert (forall ((x_6790 Bool_89) (x_6791 list_70) (x_6792 Bool_89) (x_6793 list_70))
	(=> (diseqBool_38 x_6790 x_6792) (diseqlist_70 (cons_70 x_6790 x_6791) (cons_70 x_6792 x_6793)))))
(assert (forall ((x_6790 Bool_89) (x_6791 list_70) (x_6792 Bool_89) (x_6793 list_70))
	(=> (diseqlist_70 x_6791 x_6793) (diseqlist_70 (cons_70 x_6790 x_6791) (cons_70 x_6792 x_6793)))))
(declare-datatypes ((A_10 0)) (((X_4671) (Y_389))))
(declare-fun diseqA_0 (A_10 A_10) Bool)
(declare-fun isX_0 (A_10) Bool)
(declare-fun isY_0 (A_10) Bool)
(assert (isX_0 X_4671))
(assert (isY_0 Y_389))
(assert (diseqA_0 X_4671 Y_389))
(assert (diseqA_0 Y_389 X_4671))
(declare-datatypes ((R_93 0)) (((Nil_73) (Eps_0) (Atom_0 (projAtom_0 A_10)) (Plus_3 (projPlus_0 R_93) (projPlus_1 R_93)) (Seq_0 (projSeq_0 R_93) (projSeq_1 R_93)) (Star_0 (projStar_0 R_93)))))
(declare-fun diseqR_0 (R_93 R_93) Bool)
(declare-fun projAtom_1 (A_10 R_93) Bool)
(declare-fun projPlus_2 (R_93 R_93) Bool)
(declare-fun projPlus_3 (R_93 R_93) Bool)
(declare-fun projSeq_2 (R_93 R_93) Bool)
(declare-fun projSeq_3 (R_93 R_93) Bool)
(declare-fun projStar_1 (R_93 R_93) Bool)
(declare-fun isNil_73 (R_93) Bool)
(declare-fun isEps_0 (R_93) Bool)
(declare-fun isAtom_0 (R_93) Bool)
(declare-fun isPlus_0 (R_93) Bool)
(declare-fun isSeq_0 (R_93) Bool)
(declare-fun isStar_0 (R_93) Bool)
(assert (forall ((x_6798 A_10))
	(projAtom_1 x_6798 (Atom_0 x_6798))))
(assert (forall ((x_6800 R_93) (x_6801 R_93))
	(projPlus_2 x_6800 (Plus_3 x_6800 x_6801))))
(assert (forall ((x_6800 R_93) (x_6801 R_93))
	(projPlus_3 x_6801 (Plus_3 x_6800 x_6801))))
(assert (forall ((x_6803 R_93) (x_6804 R_93))
	(projSeq_2 x_6803 (Seq_0 x_6803 x_6804))))
(assert (forall ((x_6803 R_93) (x_6804 R_93))
	(projSeq_3 x_6804 (Seq_0 x_6803 x_6804))))
(assert (forall ((x_6806 R_93))
	(projStar_1 x_6806 (Star_0 x_6806))))
(assert (isNil_73 Nil_73))
(assert (isEps_0 Eps_0))
(assert (forall ((x_6808 A_10))
	(isAtom_0 (Atom_0 x_6808))))
(assert (forall ((x_6809 R_93) (x_6810 R_93))
	(isPlus_0 (Plus_3 x_6809 x_6810))))
(assert (forall ((x_6811 R_93) (x_6812 R_93))
	(isSeq_0 (Seq_0 x_6811 x_6812))))
(assert (forall ((x_6813 R_93))
	(isStar_0 (Star_0 x_6813))))
(assert (diseqR_0 Nil_73 Eps_0))
(assert (forall ((x_6814 A_10))
	(diseqR_0 Nil_73 (Atom_0 x_6814))))
(assert (forall ((x_6815 R_93) (x_6816 R_93))
	(diseqR_0 Nil_73 (Plus_3 x_6815 x_6816))))
(assert (forall ((x_6817 R_93) (x_6818 R_93))
	(diseqR_0 Nil_73 (Seq_0 x_6817 x_6818))))
(assert (forall ((x_6819 R_93))
	(diseqR_0 Nil_73 (Star_0 x_6819))))
(assert (diseqR_0 Eps_0 Nil_73))
(assert (forall ((x_6820 A_10))
	(diseqR_0 (Atom_0 x_6820) Nil_73)))
(assert (forall ((x_6821 R_93) (x_6822 R_93))
	(diseqR_0 (Plus_3 x_6821 x_6822) Nil_73)))
(assert (forall ((x_6823 R_93) (x_6824 R_93))
	(diseqR_0 (Seq_0 x_6823 x_6824) Nil_73)))
(assert (forall ((x_6825 R_93))
	(diseqR_0 (Star_0 x_6825) Nil_73)))
(assert (forall ((x_6826 A_10))
	(diseqR_0 Eps_0 (Atom_0 x_6826))))
(assert (forall ((x_6827 R_93) (x_6828 R_93))
	(diseqR_0 Eps_0 (Plus_3 x_6827 x_6828))))
(assert (forall ((x_6829 R_93) (x_6830 R_93))
	(diseqR_0 Eps_0 (Seq_0 x_6829 x_6830))))
(assert (forall ((x_6831 R_93))
	(diseqR_0 Eps_0 (Star_0 x_6831))))
(assert (forall ((x_6832 A_10))
	(diseqR_0 (Atom_0 x_6832) Eps_0)))
(assert (forall ((x_6833 R_93) (x_6834 R_93))
	(diseqR_0 (Plus_3 x_6833 x_6834) Eps_0)))
(assert (forall ((x_6835 R_93) (x_6836 R_93))
	(diseqR_0 (Seq_0 x_6835 x_6836) Eps_0)))
(assert (forall ((x_6837 R_93))
	(diseqR_0 (Star_0 x_6837) Eps_0)))
(assert (forall ((x_6838 A_10) (x_6839 R_93) (x_6840 R_93))
	(diseqR_0 (Atom_0 x_6838) (Plus_3 x_6839 x_6840))))
(assert (forall ((x_6841 A_10) (x_6842 R_93) (x_6843 R_93))
	(diseqR_0 (Atom_0 x_6841) (Seq_0 x_6842 x_6843))))
(assert (forall ((x_6844 A_10) (x_6845 R_93))
	(diseqR_0 (Atom_0 x_6844) (Star_0 x_6845))))
(assert (forall ((x_6846 R_93) (x_6847 R_93) (x_6848 A_10))
	(diseqR_0 (Plus_3 x_6846 x_6847) (Atom_0 x_6848))))
(assert (forall ((x_6849 R_93) (x_6850 R_93) (x_6851 A_10))
	(diseqR_0 (Seq_0 x_6849 x_6850) (Atom_0 x_6851))))
(assert (forall ((x_6852 R_93) (x_6853 A_10))
	(diseqR_0 (Star_0 x_6852) (Atom_0 x_6853))))
(assert (forall ((x_6854 R_93) (x_6855 R_93) (x_6856 R_93) (x_6857 R_93))
	(diseqR_0 (Plus_3 x_6854 x_6855) (Seq_0 x_6856 x_6857))))
(assert (forall ((x_6858 R_93) (x_6859 R_93) (x_6860 R_93))
	(diseqR_0 (Plus_3 x_6858 x_6859) (Star_0 x_6860))))
(assert (forall ((x_6861 R_93) (x_6862 R_93) (x_6863 R_93) (x_6864 R_93))
	(diseqR_0 (Seq_0 x_6861 x_6862) (Plus_3 x_6863 x_6864))))
(assert (forall ((x_6865 R_93) (x_6866 R_93) (x_6867 R_93))
	(diseqR_0 (Star_0 x_6865) (Plus_3 x_6866 x_6867))))
(assert (forall ((x_6868 R_93) (x_6869 R_93) (x_6870 R_93))
	(diseqR_0 (Seq_0 x_6868 x_6869) (Star_0 x_6870))))
(assert (forall ((x_6871 R_93) (x_6872 R_93) (x_6873 R_93))
	(diseqR_0 (Star_0 x_6871) (Seq_0 x_6872 x_6873))))
(assert (forall ((x_6874 A_10) (x_6875 A_10))
	(=> (diseqA_0 x_6874 x_6875) (diseqR_0 (Atom_0 x_6874) (Atom_0 x_6875)))))
(assert (forall ((x_6876 R_93) (x_6877 R_93) (x_6878 R_93) (x_6879 R_93))
	(=> (diseqR_0 x_6876 x_6878) (diseqR_0 (Plus_3 x_6876 x_6877) (Plus_3 x_6878 x_6879)))))
(assert (forall ((x_6876 R_93) (x_6877 R_93) (x_6878 R_93) (x_6879 R_93))
	(=> (diseqR_0 x_6877 x_6879) (diseqR_0 (Plus_3 x_6876 x_6877) (Plus_3 x_6878 x_6879)))))
(assert (forall ((x_6880 R_93) (x_6881 R_93) (x_6882 R_93) (x_6883 R_93))
	(=> (diseqR_0 x_6880 x_6882) (diseqR_0 (Seq_0 x_6880 x_6881) (Seq_0 x_6882 x_6883)))))
(assert (forall ((x_6880 R_93) (x_6881 R_93) (x_6882 R_93) (x_6883 R_93))
	(=> (diseqR_0 x_6881 x_6883) (diseqR_0 (Seq_0 x_6880 x_6881) (Seq_0 x_6882 x_6883)))))
(assert (forall ((x_6884 R_93) (x_6885 R_93))
	(=> (diseqR_0 x_6884 x_6885) (diseqR_0 (Star_0 x_6884) (Star_0 x_6885)))))
(declare-datatypes ((list_71 0)) (((nil_74) (cons_71 (head_141 A_10) (tail_141 list_71)))))
(declare-fun diseqlist_71 (list_71 list_71) Bool)
(declare-fun head_144 (A_10 list_71) Bool)
(declare-fun tail_144 (list_71 list_71) Bool)
(declare-fun isnil_74 (list_71) Bool)
(declare-fun iscons_71 (list_71) Bool)
(assert (forall ((x_6887 A_10) (x_6888 list_71))
	(head_144 x_6887 (cons_71 x_6887 x_6888))))
(assert (forall ((x_6887 A_10) (x_6888 list_71))
	(tail_144 x_6888 (cons_71 x_6887 x_6888))))
(assert (isnil_74 nil_74))
(assert (forall ((x_6890 A_10) (x_6891 list_71))
	(iscons_71 (cons_71 x_6890 x_6891))))
(assert (forall ((x_6892 A_10) (x_6893 list_71))
	(diseqlist_71 nil_74 (cons_71 x_6892 x_6893))))
(assert (forall ((x_6894 A_10) (x_6895 list_71))
	(diseqlist_71 (cons_71 x_6894 x_6895) nil_74)))
(assert (forall ((x_6896 A_10) (x_6897 list_71) (x_6898 A_10) (x_6899 list_71))
	(=> (diseqA_0 x_6896 x_6898) (diseqlist_71 (cons_71 x_6896 x_6897) (cons_71 x_6898 x_6899)))))
(assert (forall ((x_6896 A_10) (x_6897 list_71) (x_6898 A_10) (x_6899 list_71))
	(=> (diseqlist_71 x_6897 x_6899) (diseqlist_71 (cons_71 x_6896 x_6897) (cons_71 x_6898 x_6899)))))
(declare-datatypes ((pair_18 0)) (((pair_19 (projpair_36 list_71) (projpair_37 list_71)))))
(declare-fun diseqpair_9 (pair_18 pair_18) Bool)
(declare-fun projpair_38 (list_71 pair_18) Bool)
(declare-fun projpair_39 (list_71 pair_18) Bool)
(declare-fun ispair_9 (pair_18) Bool)
(assert (forall ((x_6900 list_71) (x_6901 list_71))
	(projpair_38 x_6900 (pair_19 x_6900 x_6901))))
(assert (forall ((x_6900 list_71) (x_6901 list_71))
	(projpair_39 x_6901 (pair_19 x_6900 x_6901))))
(assert (forall ((x_6903 list_71) (x_6904 list_71))
	(ispair_9 (pair_19 x_6903 x_6904))))
(assert (forall ((x_6905 list_71) (x_6906 list_71) (x_6907 list_71) (x_6908 list_71))
	(=> (diseqlist_71 x_6905 x_6907) (diseqpair_9 (pair_19 x_6905 x_6906) (pair_19 x_6907 x_6908)))))
(assert (forall ((x_6905 list_71) (x_6906 list_71) (x_6907 list_71) (x_6908 list_71))
	(=> (diseqlist_71 x_6906 x_6908) (diseqpair_9 (pair_19 x_6905 x_6906) (pair_19 x_6907 x_6908)))))
(declare-datatypes ((list_72 0)) (((nil_75) (cons_72 (head_142 pair_18) (tail_142 list_72)))))
(declare-fun diseqlist_72 (list_72 list_72) Bool)
(declare-fun head_145 (pair_18 list_72) Bool)
(declare-fun tail_145 (list_72 list_72) Bool)
(declare-fun isnil_75 (list_72) Bool)
(declare-fun iscons_72 (list_72) Bool)
(assert (forall ((x_6910 pair_18) (x_6911 list_72))
	(head_145 x_6910 (cons_72 x_6910 x_6911))))
(assert (forall ((x_6910 pair_18) (x_6911 list_72))
	(tail_145 x_6911 (cons_72 x_6910 x_6911))))
(assert (isnil_75 nil_75))
(assert (forall ((x_6913 pair_18) (x_6914 list_72))
	(iscons_72 (cons_72 x_6913 x_6914))))
(assert (forall ((x_6915 pair_18) (x_6916 list_72))
	(diseqlist_72 nil_75 (cons_72 x_6915 x_6916))))
(assert (forall ((x_6917 pair_18) (x_6918 list_72))
	(diseqlist_72 (cons_72 x_6917 x_6918) nil_75)))
(assert (forall ((x_6919 pair_18) (x_6920 list_72) (x_6921 pair_18) (x_6922 list_72))
	(=> (diseqpair_9 x_6919 x_6921) (diseqlist_72 (cons_72 x_6919 x_6920) (cons_72 x_6921 x_6922)))))
(assert (forall ((x_6919 pair_18) (x_6920 list_72) (x_6921 pair_18) (x_6922 list_72))
	(=> (diseqlist_72 x_6920 x_6922) (diseqlist_72 (cons_72 x_6919 x_6920) (cons_72 x_6921 x_6922)))))
(declare-fun split_0 (list_72 A_10 list_72) Bool)
(assert (forall ((x_5900 list_72) (xs_136 list_71) (ys_33 list_71) (x_4673 list_72) (x_4672 A_10))
	(=> (split_0 x_5900 x_4672 x_4673) (split_0 (cons_72 (pair_19 (cons_71 x_4672 xs_136) ys_33) x_5900) x_4672 (cons_72 (pair_19 xs_136 ys_33) x_4673)))))
(assert (forall ((x_4672 A_10))
	(split_0 nil_75 x_4672 nil_75)))
(declare-fun split_1 (list_72 list_71) Bool)
(assert (forall ((x_5903 list_72) (x_5904 list_72) (y_391 A_10) (s_162 list_71))
	(=> (and (split_1 x_5903 s_162) (split_0 x_5904 y_391 x_5903)) (split_1 (cons_72 (pair_19 nil_74 (cons_71 y_391 s_162)) x_5904) (cons_71 y_391 s_162)))))
(assert (split_1 (cons_72 (pair_19 nil_74 nil_74) nil_75) nil_74))
(declare-fun seq_1 (R_93 R_93 R_93) Bool)
(assert (forall ((y_392 R_93))
	(seq_1 Nil_73 Nil_73 y_392)))
(assert (forall ((x_4676 R_93) (x_4920 A_10))
	(seq_1 Nil_73 (Atom_0 x_4920) Nil_73)))
(assert (forall ((x_4676 R_93))
	(seq_1 Nil_73 Eps_0 Nil_73)))
(assert (forall ((x_4676 R_93) (x_4921 R_93) (x_4922 R_93))
	(seq_1 Nil_73 (Plus_3 x_4921 x_4922) Nil_73)))
(assert (forall ((x_4676 R_93) (x_4923 R_93) (x_4924 R_93))
	(seq_1 Nil_73 (Seq_0 x_4923 x_4924) Nil_73)))
(assert (forall ((x_4676 R_93) (x_4925 R_93))
	(seq_1 Nil_73 (Star_0 x_4925) Nil_73)))
(assert (forall ((x_4677 R_93) (x_4734 A_10) (x_4676 R_93))
	(seq_1 (Atom_0 x_4734) Eps_0 (Atom_0 x_4734))))
(assert (forall ((x_4677 R_93) (x_4676 R_93))
	(seq_1 Eps_0 Eps_0 Eps_0)))
(assert (forall ((x_4677 R_93) (x_4735 R_93) (x_4736 R_93) (x_4676 R_93))
	(seq_1 (Plus_3 x_4735 x_4736) Eps_0 (Plus_3 x_4735 x_4736))))
(assert (forall ((x_4677 R_93) (x_4737 R_93) (x_4738 R_93) (x_4676 R_93))
	(seq_1 (Seq_0 x_4737 x_4738) Eps_0 (Seq_0 x_4737 x_4738))))
(assert (forall ((x_4677 R_93) (x_4739 R_93) (x_4676 R_93))
	(seq_1 (Star_0 x_4739) Eps_0 (Star_0 x_4739))))
(assert (forall ((x_4678 R_93) (x_4698 A_10) (x_4677 R_93) (x_4676 R_93))
	(seq_1 (Atom_0 x_4698) (Atom_0 x_4698) Eps_0)))
(assert (forall ((x_4678 R_93) (x_4699 R_93) (x_4700 R_93) (x_4677 R_93) (x_4676 R_93))
	(seq_1 (Plus_3 x_4699 x_4700) (Plus_3 x_4699 x_4700) Eps_0)))
(assert (forall ((x_4678 R_93) (x_4701 R_93) (x_4702 R_93) (x_4677 R_93) (x_4676 R_93))
	(seq_1 (Seq_0 x_4701 x_4702) (Seq_0 x_4701 x_4702) Eps_0)))
(assert (forall ((x_4678 R_93) (x_4703 R_93) (x_4677 R_93) (x_4676 R_93))
	(seq_1 (Star_0 x_4703) (Star_0 x_4703) Eps_0)))
(assert (forall ((x_4679 R_93) (x_4692 A_10) (x_4678 R_93) (x_4704 A_10) (x_4677 R_93) (x_4676 R_93))
	(seq_1 (Seq_0 (Atom_0 x_4704) (Atom_0 x_4692)) (Atom_0 x_4704) (Atom_0 x_4692))))
(assert (forall ((x_4679 R_93) (x_4692 A_10) (x_4678 R_93) (x_4705 R_93) (x_4706 R_93) (x_4677 R_93) (x_4676 R_93))
	(seq_1 (Seq_0 (Plus_3 x_4705 x_4706) (Atom_0 x_4692)) (Plus_3 x_4705 x_4706) (Atom_0 x_4692))))
(assert (forall ((x_4679 R_93) (x_4692 A_10) (x_4678 R_93) (x_4707 R_93) (x_4708 R_93) (x_4677 R_93) (x_4676 R_93))
	(seq_1 (Seq_0 (Seq_0 x_4707 x_4708) (Atom_0 x_4692)) (Seq_0 x_4707 x_4708) (Atom_0 x_4692))))
(assert (forall ((x_4679 R_93) (x_4692 A_10) (x_4678 R_93) (x_4709 R_93) (x_4677 R_93) (x_4676 R_93))
	(seq_1 (Seq_0 (Star_0 x_4709) (Atom_0 x_4692)) (Star_0 x_4709) (Atom_0 x_4692))))
(assert (forall ((x_4679 R_93) (x_4693 R_93) (x_4694 R_93) (x_4678 R_93) (x_4716 A_10) (x_4677 R_93) (x_4676 R_93))
	(seq_1 (Seq_0 (Atom_0 x_4716) (Plus_3 x_4693 x_4694)) (Atom_0 x_4716) (Plus_3 x_4693 x_4694))))
(assert (forall ((x_4679 R_93) (x_4693 R_93) (x_4694 R_93) (x_4678 R_93) (x_4717 R_93) (x_4718 R_93) (x_4677 R_93) (x_4676 R_93))
	(seq_1 (Seq_0 (Plus_3 x_4717 x_4718) (Plus_3 x_4693 x_4694)) (Plus_3 x_4717 x_4718) (Plus_3 x_4693 x_4694))))
(assert (forall ((x_4679 R_93) (x_4693 R_93) (x_4694 R_93) (x_4678 R_93) (x_4719 R_93) (x_4720 R_93) (x_4677 R_93) (x_4676 R_93))
	(seq_1 (Seq_0 (Seq_0 x_4719 x_4720) (Plus_3 x_4693 x_4694)) (Seq_0 x_4719 x_4720) (Plus_3 x_4693 x_4694))))
(assert (forall ((x_4679 R_93) (x_4693 R_93) (x_4694 R_93) (x_4678 R_93) (x_4721 R_93) (x_4677 R_93) (x_4676 R_93))
	(seq_1 (Seq_0 (Star_0 x_4721) (Plus_3 x_4693 x_4694)) (Star_0 x_4721) (Plus_3 x_4693 x_4694))))
(assert (forall ((x_4679 R_93) (x_4695 R_93) (x_4696 R_93) (x_4678 R_93) (x_4722 A_10) (x_4677 R_93) (x_4676 R_93))
	(seq_1 (Seq_0 (Atom_0 x_4722) (Seq_0 x_4695 x_4696)) (Atom_0 x_4722) (Seq_0 x_4695 x_4696))))
(assert (forall ((x_4679 R_93) (x_4695 R_93) (x_4696 R_93) (x_4678 R_93) (x_4723 R_93) (x_4724 R_93) (x_4677 R_93) (x_4676 R_93))
	(seq_1 (Seq_0 (Plus_3 x_4723 x_4724) (Seq_0 x_4695 x_4696)) (Plus_3 x_4723 x_4724) (Seq_0 x_4695 x_4696))))
(assert (forall ((x_4679 R_93) (x_4695 R_93) (x_4696 R_93) (x_4678 R_93) (x_4725 R_93) (x_4726 R_93) (x_4677 R_93) (x_4676 R_93))
	(seq_1 (Seq_0 (Seq_0 x_4725 x_4726) (Seq_0 x_4695 x_4696)) (Seq_0 x_4725 x_4726) (Seq_0 x_4695 x_4696))))
(assert (forall ((x_4679 R_93) (x_4695 R_93) (x_4696 R_93) (x_4678 R_93) (x_4727 R_93) (x_4677 R_93) (x_4676 R_93))
	(seq_1 (Seq_0 (Star_0 x_4727) (Seq_0 x_4695 x_4696)) (Star_0 x_4727) (Seq_0 x_4695 x_4696))))
(assert (forall ((x_4679 R_93) (x_4697 R_93) (x_4678 R_93) (x_4728 A_10) (x_4677 R_93) (x_4676 R_93))
	(seq_1 (Seq_0 (Atom_0 x_4728) (Star_0 x_4697)) (Atom_0 x_4728) (Star_0 x_4697))))
(assert (forall ((x_4679 R_93) (x_4697 R_93) (x_4678 R_93) (x_4729 R_93) (x_4730 R_93) (x_4677 R_93) (x_4676 R_93))
	(seq_1 (Seq_0 (Plus_3 x_4729 x_4730) (Star_0 x_4697)) (Plus_3 x_4729 x_4730) (Star_0 x_4697))))
(assert (forall ((x_4679 R_93) (x_4697 R_93) (x_4678 R_93) (x_4731 R_93) (x_4732 R_93) (x_4677 R_93) (x_4676 R_93))
	(seq_1 (Seq_0 (Seq_0 x_4731 x_4732) (Star_0 x_4697)) (Seq_0 x_4731 x_4732) (Star_0 x_4697))))
(assert (forall ((x_4679 R_93) (x_4697 R_93) (x_4678 R_93) (x_4733 R_93) (x_4677 R_93) (x_4676 R_93))
	(seq_1 (Seq_0 (Star_0 x_4733) (Star_0 x_4697)) (Star_0 x_4733) (Star_0 x_4697))))
(declare-fun plus_4 (R_93 R_93 R_93) Bool)
(assert (forall ((x_6687 R_93))
	(plus_4 x_6687 Nil_73 x_6687)))
(assert (forall ((x_4681 R_93) (x_5862 A_10))
	(plus_4 (Atom_0 x_5862) (Atom_0 x_5862) Nil_73)))
(assert (forall ((x_4681 R_93))
	(plus_4 Eps_0 Eps_0 Nil_73)))
(assert (forall ((x_4681 R_93) (x_5863 R_93) (x_5864 R_93))
	(plus_4 (Plus_3 x_5863 x_5864) (Plus_3 x_5863 x_5864) Nil_73)))
(assert (forall ((x_4681 R_93) (x_5865 R_93) (x_5866 R_93))
	(plus_4 (Seq_0 x_5865 x_5866) (Seq_0 x_5865 x_5866) Nil_73)))
(assert (forall ((x_4681 R_93) (x_5867 R_93))
	(plus_4 (Star_0 x_5867) (Star_0 x_5867) Nil_73)))
(assert (forall ((x_4682 R_93) (x_5856 A_10) (x_4681 R_93) (x_5868 A_10))
	(plus_4 (Plus_3 (Atom_0 x_5868) (Atom_0 x_5856)) (Atom_0 x_5868) (Atom_0 x_5856))))
(assert (forall ((x_4682 R_93) (x_5856 A_10) (x_4681 R_93))
	(plus_4 (Plus_3 Eps_0 (Atom_0 x_5856)) Eps_0 (Atom_0 x_5856))))
(assert (forall ((x_4682 R_93) (x_5856 A_10) (x_4681 R_93) (x_5869 R_93) (x_5870 R_93))
	(plus_4 (Plus_3 (Plus_3 x_5869 x_5870) (Atom_0 x_5856)) (Plus_3 x_5869 x_5870) (Atom_0 x_5856))))
(assert (forall ((x_4682 R_93) (x_5856 A_10) (x_4681 R_93) (x_5871 R_93) (x_5872 R_93))
	(plus_4 (Plus_3 (Seq_0 x_5871 x_5872) (Atom_0 x_5856)) (Seq_0 x_5871 x_5872) (Atom_0 x_5856))))
(assert (forall ((x_4682 R_93) (x_5856 A_10) (x_4681 R_93) (x_5873 R_93))
	(plus_4 (Plus_3 (Star_0 x_5873) (Atom_0 x_5856)) (Star_0 x_5873) (Atom_0 x_5856))))
(assert (forall ((x_4682 R_93) (x_4681 R_93) (x_5874 A_10))
	(plus_4 (Plus_3 (Atom_0 x_5874) Eps_0) (Atom_0 x_5874) Eps_0)))
(assert (forall ((x_4682 R_93) (x_4681 R_93))
	(plus_4 (Plus_3 Eps_0 Eps_0) Eps_0 Eps_0)))
(assert (forall ((x_4682 R_93) (x_4681 R_93) (x_5875 R_93) (x_5876 R_93))
	(plus_4 (Plus_3 (Plus_3 x_5875 x_5876) Eps_0) (Plus_3 x_5875 x_5876) Eps_0)))
(assert (forall ((x_4682 R_93) (x_4681 R_93) (x_5877 R_93) (x_5878 R_93))
	(plus_4 (Plus_3 (Seq_0 x_5877 x_5878) Eps_0) (Seq_0 x_5877 x_5878) Eps_0)))
(assert (forall ((x_4682 R_93) (x_4681 R_93) (x_5879 R_93))
	(plus_4 (Plus_3 (Star_0 x_5879) Eps_0) (Star_0 x_5879) Eps_0)))
(assert (forall ((x_4682 R_93) (x_5857 R_93) (x_5858 R_93) (x_4681 R_93) (x_5880 A_10))
	(plus_4 (Plus_3 (Atom_0 x_5880) (Plus_3 x_5857 x_5858)) (Atom_0 x_5880) (Plus_3 x_5857 x_5858))))
(assert (forall ((x_4682 R_93) (x_5857 R_93) (x_5858 R_93) (x_4681 R_93))
	(plus_4 (Plus_3 Eps_0 (Plus_3 x_5857 x_5858)) Eps_0 (Plus_3 x_5857 x_5858))))
(assert (forall ((x_4682 R_93) (x_5857 R_93) (x_5858 R_93) (x_4681 R_93) (x_5881 R_93) (x_5882 R_93))
	(plus_4 (Plus_3 (Plus_3 x_5881 x_5882) (Plus_3 x_5857 x_5858)) (Plus_3 x_5881 x_5882) (Plus_3 x_5857 x_5858))))
(assert (forall ((x_4682 R_93) (x_5857 R_93) (x_5858 R_93) (x_4681 R_93) (x_5883 R_93) (x_5884 R_93))
	(plus_4 (Plus_3 (Seq_0 x_5883 x_5884) (Plus_3 x_5857 x_5858)) (Seq_0 x_5883 x_5884) (Plus_3 x_5857 x_5858))))
(assert (forall ((x_4682 R_93) (x_5857 R_93) (x_5858 R_93) (x_4681 R_93) (x_5885 R_93))
	(plus_4 (Plus_3 (Star_0 x_5885) (Plus_3 x_5857 x_5858)) (Star_0 x_5885) (Plus_3 x_5857 x_5858))))
(assert (forall ((x_4682 R_93) (x_5859 R_93) (x_5860 R_93) (x_4681 R_93) (x_5886 A_10))
	(plus_4 (Plus_3 (Atom_0 x_5886) (Seq_0 x_5859 x_5860)) (Atom_0 x_5886) (Seq_0 x_5859 x_5860))))
(assert (forall ((x_4682 R_93) (x_5859 R_93) (x_5860 R_93) (x_4681 R_93))
	(plus_4 (Plus_3 Eps_0 (Seq_0 x_5859 x_5860)) Eps_0 (Seq_0 x_5859 x_5860))))
(assert (forall ((x_4682 R_93) (x_5859 R_93) (x_5860 R_93) (x_4681 R_93) (x_5887 R_93) (x_5888 R_93))
	(plus_4 (Plus_3 (Plus_3 x_5887 x_5888) (Seq_0 x_5859 x_5860)) (Plus_3 x_5887 x_5888) (Seq_0 x_5859 x_5860))))
(assert (forall ((x_4682 R_93) (x_5859 R_93) (x_5860 R_93) (x_4681 R_93) (x_5889 R_93) (x_5890 R_93))
	(plus_4 (Plus_3 (Seq_0 x_5889 x_5890) (Seq_0 x_5859 x_5860)) (Seq_0 x_5889 x_5890) (Seq_0 x_5859 x_5860))))
(assert (forall ((x_4682 R_93) (x_5859 R_93) (x_5860 R_93) (x_4681 R_93) (x_5891 R_93))
	(plus_4 (Plus_3 (Star_0 x_5891) (Seq_0 x_5859 x_5860)) (Star_0 x_5891) (Seq_0 x_5859 x_5860))))
(assert (forall ((x_4682 R_93) (x_5861 R_93) (x_4681 R_93) (x_5892 A_10))
	(plus_4 (Plus_3 (Atom_0 x_5892) (Star_0 x_5861)) (Atom_0 x_5892) (Star_0 x_5861))))
(assert (forall ((x_4682 R_93) (x_5861 R_93) (x_4681 R_93))
	(plus_4 (Plus_3 Eps_0 (Star_0 x_5861)) Eps_0 (Star_0 x_5861))))
(assert (forall ((x_4682 R_93) (x_5861 R_93) (x_4681 R_93) (x_5893 R_93) (x_5894 R_93))
	(plus_4 (Plus_3 (Plus_3 x_5893 x_5894) (Star_0 x_5861)) (Plus_3 x_5893 x_5894) (Star_0 x_5861))))
(assert (forall ((x_4682 R_93) (x_5861 R_93) (x_4681 R_93) (x_5895 R_93) (x_5896 R_93))
	(plus_4 (Plus_3 (Seq_0 x_5895 x_5896) (Star_0 x_5861)) (Seq_0 x_5895 x_5896) (Star_0 x_5861))))
(assert (forall ((x_4682 R_93) (x_5861 R_93) (x_4681 R_93) (x_5897 R_93))
	(plus_4 (Plus_3 (Star_0 x_5897) (Star_0 x_5861)) (Star_0 x_5897) (Star_0 x_5861))))
(declare-fun or_89 (Bool_89 list_70) Bool)
(assert (forall ((x_6718 Bool_89) (x_6719 Bool_89) (y_394 Bool_89) (xs_137 list_70))
	(=> (and (or_89 x_6719 xs_137) (or_90 x_6718 y_394 x_6719)) (or_89 x_6718 (cons_70 y_394 xs_137)))))
(assert (or_89 false_89 nil_72))
(declare-fun eqA_0 (Bool_89 A_10 A_10) Bool)
(assert (eqA_0 true_89 Y_389 Y_389))
(assert (eqA_0 false_89 Y_389 X_4671))
(assert (eqA_0 false_89 X_4671 Y_389))
(assert (eqA_0 true_89 X_4671 X_4671))
(declare-fun eps_1 (Bool_89 R_93) Bool)
(assert (forall ((y_396 R_93))
	(eps_1 true_89 (Star_0 y_396))))
(assert (forall ((x_6726 Bool_89) (x_6727 Bool_89) (x_6728 Bool_89) (r_94 R_93) (q_2 R_93))
	(=> (and (eps_1 x_6727 r_94) (eps_1 x_6728 q_2) (and_89 x_6726 x_6727 x_6728)) (eps_1 x_6726 (Seq_0 r_94 q_2)))))
(assert (forall ((x_6729 Bool_89) (x_6730 Bool_89) (x_6731 Bool_89) (p_16 R_93) (q_3 R_93))
	(=> (and (eps_1 x_6730 p_16) (eps_1 x_6731 q_3) (or_90 x_6729 x_6730 x_6731)) (eps_1 x_6729 (Plus_3 p_16 q_3)))))
(assert (eps_1 true_89 Eps_0))
(assert (forall ((x_4686 R_93) (x_5898 A_10))
	(eps_1 false_89 (Atom_0 x_5898))))
(assert (forall ((x_4686 R_93))
	(eps_1 false_89 Nil_73)))
(declare-fun epsR_0 (R_93 R_93) Bool)
(assert (forall ((x_4687 R_93))
	(=> (eps_1 true_89 x_4687) (epsR_0 Eps_0 x_4687))))
(assert (forall ((x_4687 R_93))
	(=> (eps_1 false_89 x_4687) (epsR_0 Nil_73 x_4687))))
(declare-fun step_0 (R_93 R_93 A_10) Bool)
(assert (forall ((x_6739 R_93) (x_6740 R_93) (p_17 R_93) (y_397 A_10))
	(=> (and (step_0 x_6740 p_17 y_397) (seq_1 x_6739 x_6740 (Star_0 p_17))) (step_0 x_6739 (Star_0 p_17) y_397))))
(assert (forall ((x_6742 R_93) (x_6743 R_93) (x_6744 R_93) (x_6745 R_93) (x_6746 R_93) (x_6747 R_93) (r_95 R_93) (q_4 R_93) (y_397 A_10))
	(=> (and (step_0 x_6743 r_95 y_397) (seq_1 x_6744 x_6743 q_4) (epsR_0 x_6745 r_95) (step_0 x_6746 q_4 y_397) (seq_1 x_6747 x_6745 x_6746) (plus_4 x_6742 x_6744 x_6747)) (step_0 x_6742 (Seq_0 r_95 q_4) y_397))))
(assert (forall ((x_6749 R_93) (x_6750 R_93) (x_6751 R_93) (p_18 R_93) (q_5 R_93) (y_397 A_10))
	(=> (and (step_0 x_6750 p_18 y_397) (step_0 x_6751 q_5 y_397) (plus_4 x_6749 x_6750 x_6751)) (step_0 x_6749 (Plus_3 p_18 q_5) y_397))))
(assert (forall ((a_11 A_10) (y_397 A_10))
	(=> (eqA_0 true_89 a_11 y_397) (step_0 Eps_0 (Atom_0 a_11) y_397))))
(assert (forall ((a_11 A_10) (y_397 A_10))
	(=> (eqA_0 false_89 a_11 y_397) (step_0 Nil_73 (Atom_0 a_11) y_397))))
(assert (forall ((x_4689 R_93) (y_397 A_10))
	(step_0 Nil_73 Eps_0 y_397)))
(assert (forall ((x_4689 R_93) (y_397 A_10))
	(step_0 Nil_73 Nil_73 y_397)))
(declare-fun recognise_0 (Bool_89 R_93 list_71) Bool)
(assert (forall ((x_6759 Bool_89) (x_6760 R_93) (z_475 A_10) (xs_138 list_71) (x_4690 R_93))
	(=> (and (step_0 x_6760 x_4690 z_475) (recognise_0 x_6759 x_6760 xs_138)) (recognise_0 x_6759 x_4690 (cons_71 z_475 xs_138)))))
(assert (forall ((x_6762 Bool_89) (x_4690 R_93))
	(=> (eps_1 x_6762 x_4690) (recognise_0 x_6762 x_4690 nil_74))))
(declare-fun formula_0 (list_70 R_93 R_93 list_72) Bool)
(assert (forall ((x_6776 Bool_89) (x_6765 Bool_89) (x_6766 Bool_89) (x_6767 list_70) (s_163 list_71) (s_164 list_71) (z_476 list_72) (p_19 R_93) (q_6 R_93))
	(=> (and (recognise_0 x_6765 p_19 s_163) (recognise_0 x_6766 q_6 s_164) (formula_0 x_6767 p_19 q_6 z_476) (and_89 x_6776 x_6765 x_6766)) (formula_0 (cons_70 x_6776 x_6767) p_19 q_6 (cons_72 (pair_19 s_163 s_164) z_476)))))
(assert (forall ((p_19 R_93) (q_6 R_93))
	(formula_0 nil_72 p_19 q_6 nil_75)))
(assert (forall ((x_6769 Bool_89) (x_6770 list_72) (x_6771 list_70) (x_6772 Bool_89) (p_20 R_93) (q_7 R_93) (s_165 list_71))
	(=> (and true (diseqBool_38 x_6769 x_6772) (recognise_0 x_6769 (Seq_0 p_20 q_7) s_165) (split_1 x_6770 s_165) (formula_0 x_6771 p_20 q_7 x_6770) (or_89 x_6772 x_6771)) false)))
(check-sat)
